nK = 1570;
nT = 8;
nI = 21;
L = 29;
TT = 372;
np = 1;
nc = 3;
b = [39, 28, 46, 35, 68, 48, 63, 66, 57, 66, 43, 24, 26, 38, 51, 61, 51, 45, 63, 69, 24];
d = [103, 101, 149, 108, 142, 114, 128, 116, 99, 128, 116, 93, 97, 118, 109, 102, 82, 146, 105, 148, 117];
m = [2.1, 1.7, 1.9, 1.6, 2, 2.5, 1.3, 1, 2.4, 1.8, 1.1, 1.5, 1.2, 1, 2.5, 1.9, 2.3, 1.5, 1.8, 2, 1.7];
pt = [0.29, 0.24, 0.34, 0.23, 0.3, 0.27, 0.27, 0.32];
st = [13.05, 11.52, 18.36, 10.81, 14.1, 13.5, 11.34, 13.12];
arc = {<1, 0, 1, 1, 0, 0, 0, [1, 1, 1, 1, 1, 1, 1, 1]>, <2, 1, 2, 1, 0, 0, 0, [1, 1, 1, 1, 1, 1, 1, 1]>, <3, 2, 3, 1, 0, 0, 0, [1, 1, 1, 1, 1, 1, 1, 1]>, <4, 3, 4, 1, 0, 0, 0, [1, 1, 1, 1, 1, 1, 1, 1]>, <5, 4, 5, 1, 0, 0, 0, [1, 1, 1, 1, 1, 1, 1, 1]>, <6, 5, 6, 1, 0, 0, 0, [1, 1, 1, 1, 1, 1, 1, 1]>, <7, 6, 7, 1, 0, 0, 0, [1, 1, 1, 1, 1, 1, 1, 1]>, <8, 7, 8, 1, 0, 0, 0, [1, 1, 1, 1, 1, 1, 1, 1]>, <9, 8, 9, 1, 0, 0, 0, [1, 1, 1, 1, 1, 1, 1, 1]>, <10, 9, 10, 1, 0, 0, 0, [1, 1, 1, 1, 1, 1, 1, 1]>, <11, 10, 11, 1, 0, 0, 0, [1, 1, 1, 1, 1, 1, 1, 1]>, <12, 11, 12, 1, 0, 0, 0, [1, 1, 1, 1, 1, 1, 1, 1]>, <13, 12, 13, 1, 0, 0, 0, [1, 1, 1, 1, 1, 1, 1, 1]>, <14, 13, 14, 1, 0, 0, 0, [1, 1, 1, 1, 1, 1, 1, 1]>, <15, 14, 15, 1, 0, 0, 0, [1, 1, 1, 1, 1, 1, 1, 1]>, <16, 15, 16, 1, 0, 0, 0, [1, 1, 1, 1, 1, 1, 1, 1]>, <17, 16, 17, 1, 0, 0, 0, [1, 1, 1, 1, 1, 1, 1, 1]>, <18, 17, 18, 1, 0, 0, 0, [1, 1, 1, 1, 1, 1, 1, 1]>, <19, 18, 19, 1, 0, 0, 0, [1, 1, 1, 1, 1, 1, 1, 1]>, <20, 19, 20, 1, 0, 0, 0, [1, 1, 1, 1, 1, 1, 1, 1]>, <21, 20, 21, 1, 0, 0, 0, [1, 1, 1, 1, 1, 1, 1, 1]>, <22, 21, 22, 1, 0, 0, 0, [1, 1, 1, 1, 1, 1, 1, 1]>, <23, 22, 23, 1, 0, 0, 0, [1, 1, 1, 1, 1, 1, 1, 1]>, <24, 23, 24, 1, 0, 0, 0, [1, 1, 1, 1, 1, 1, 1, 1]>, <25, 24, 25, 1, 0, 0, 0, [1, 1, 1, 1, 1, 1, 1, 1]>, <26, 25, 26, 1, 0, 0, 0, [1, 1, 1, 1, 1, 1, 1, 1]>, <27, 26, 27, 1, 0, 0, 0, [1, 1, 1, 1, 1, 1, 1, 1]>, <28, 27, 28, 1, 0, 0, 0, [1, 1, 1, 1, 1, 1, 1, 1]>, <29, 28, 29, 1, 0, 0, 0, [1, 1, 1, 1, 1, 1, 1, 1]>, <30, 0, 12, 12, 1, 0, 1, [0, 0, 0, 0, 0, 1, 1, 0]>, <31, 1, 13, 12, 1, 0, 1, [0, 0, 0, 0, 0, 1, 1, 0]>, <32, 2, 14, 12, 1, 0, 1, [0, 0, 0, 0, 0, 1, 1, 0]>, <33, 3, 15, 12, 1, 0, 1, [0, 0, 0, 0, 0, 1, 1, 0]>, <34, 4, 16, 12, 1, 0, 1, [0, 0, 0, 0, 0, 1, 1, 0]>, <35, 5, 17, 12, 1, 0, 1, [0, 0, 0, 0, 0, 1, 1, 0]>, <36, 8, 20, 12, 1, 0, 1, [0, 0, 0, 0, 0, 1, 1, 0]>, <37, 9, 21, 12, 1, 0, 1, [0, 0, 0, 0, 0, 1, 1, 0]>, <38, 10, 22, 12, 1, 0, 1, [0, 0, 0, 0, 0, 1, 1, 0]>, <39, 11, 23, 12, 1, 0, 1, [0, 0, 0, 0, 0, 1, 1, 0]>, <40, 12, 24, 12, 1, 0, 1, [0, 0, 0, 0, 0, 1, 1, 0]>, <41, 13, 25, 12, 1, 0, 1, [0, 0, 0, 0, 0, 1, 1, 0]>, <42, 14, 26, 12, 1, 0, 1, [0, 0, 0, 0, 0, 1, 1, 0]>, <43, 15, 27, 12, 1, 0, 1, [0, 0, 0, 0, 0, 1, 1, 0]>, <44, 16, 28, 12, 1, 0, 1, [0, 0, 0, 0, 0, 1, 1, 0]>, <45, 17, 29, 12, 1, 0, 1, [0, 0, 0, 0, 0, 1, 1, 0]>, <46, 3, 12, 9, 2, 0, 0, [0, 0, 0, 0, 0, 1, 1, 0]>, <47, 4, 13, 9, 2, 0, 0, [0, 0, 0, 0, 0, 1, 1, 0]>, <48, 5, 14, 9, 2, 0, 0, [0, 0, 0, 0, 0, 1, 1, 0]>, <49, 11, 20, 9, 2, 0, 0, [0, 0, 0, 0, 0, 1, 1, 0]>, <50, 12, 21, 9, 2, 0, 0, [0, 0, 0, 0, 0, 1, 1, 0]>, <51, 15, 24, 9, 2, 0, 0, [0, 0, 0, 0, 0, 1, 1, 0]>, <52, 16, 25, 9, 2, 0, 0, [0, 0, 0, 0, 0, 1, 1, 0]>, <53, 17, 26, 9, 2, 0, 0, [0, 0, 0, 0, 0, 1, 1, 0]>, <54, 18, 27, 9, 2, 0, 0, [0, 0, 0, 0, 0, 1, 1, 0]>, <55, 19, 28, 9, 2, 0, 0, [0, 0, 0, 0, 0, 1, 1, 0]>, <56, 20, 29, 9, 2, 0, 0, [0, 0, 0, 0, 0, 1, 1, 0]>, <57, 3, 12, 9, 3, 0, 1, [0, 0, 0, 1, 1, 0, 0, 0]>, <58, 4, 13, 9, 3, 0, 1, [0, 0, 0, 1, 1, 0, 0, 0]>, <59, 5, 14, 9, 3, 0, 1, [0, 0, 0, 1, 1, 0, 0, 0]>, <60, 11, 20, 9, 3, 0, 1, [0, 0, 0, 1, 1, 0, 0, 0]>, <61, 12, 21, 9, 3, 0, 1, [0, 0, 0, 1, 1, 0, 0, 0]>, <62, 15, 24, 9, 3, 0, 1, [0, 0, 0, 1, 1, 0, 0, 0]>, <63, 16, 25, 9, 3, 0, 1, [0, 0, 0, 1, 1, 0, 0, 0]>, <64, 17, 26, 9, 3, 0, 1, [0, 0, 0, 1, 1, 0, 0, 0]>, <65, 18, 27, 9, 3, 0, 1, [0, 0, 0, 1, 1, 0, 0, 0]>, <66, 19, 28, 9, 3, 0, 1, [0, 0, 0, 1, 1, 0, 0, 0]>, <67, 20, 29, 9, 3, 0, 1, [0, 0, 0, 1, 1, 0, 0, 0]>, <68, 4, 11, 7, 4, 0, 0, [1, 0, 0, 0, 0, 0, 0, 1]>, <69, 5, 12, 7, 4, 0, 0, [1, 0, 0, 0, 0, 0, 0, 1]>, <70, 11, 18, 7, 4, 0, 0, [1, 0, 0, 0, 0, 0, 0, 1]>, <71, 12, 19, 7, 4, 0, 0, [1, 0, 0, 0, 0, 0, 0, 1]>, <72, 17, 24, 7, 4, 0, 0, [1, 0, 0, 0, 0, 0, 0, 1]>, <73, 18, 25, 7, 4, 0, 0, [1, 0, 0, 0, 0, 0, 0, 1]>, <74, 19, 26, 7, 4, 0, 0, [1, 0, 0, 0, 0, 0, 0, 1]>, <75, 20, 27, 7, 4, 0, 0, [1, 0, 0, 0, 0, 0, 0, 1]>, <76, 3, 12, 9, 5, 0, 1, [0, 0, 0, 0, 1, 1, 0, 0]>, <77, 4, 13, 9, 5, 0, 1, [0, 0, 0, 0, 1, 1, 0, 0]>, <78, 5, 14, 9, 5, 0, 1, [0, 0, 0, 0, 1, 1, 0, 0]>, <79, 11, 20, 9, 5, 0, 1, [0, 0, 0, 0, 1, 1, 0, 0]>, <80, 12, 21, 9, 5, 0, 1, [0, 0, 0, 0, 1, 1, 0, 0]>, <81, 15, 24, 9, 5, 0, 1, [0, 0, 0, 0, 1, 1, 0, 0]>, <82, 16, 25, 9, 5, 0, 1, [0, 0, 0, 0, 1, 1, 0, 0]>, <83, 17, 26, 9, 5, 0, 1, [0, 0, 0, 0, 1, 1, 0, 0]>, <84, 18, 27, 9, 5, 0, 1, [0, 0, 0, 0, 1, 1, 0, 0]>, <85, 19, 28, 9, 5, 0, 1, [0, 0, 0, 0, 1, 1, 0, 0]>, <86, 20, 29, 9, 5, 0, 1, [0, 0, 0, 0, 1, 1, 0, 0]>, <87, 3, 12, 9, 6, 0, 0, [0, 1, 1, 0, 0, 0, 0, 0]>, <88, 4, 13, 9, 6, 0, 0, [0, 1, 1, 0, 0, 0, 0, 0]>, <89, 5, 14, 9, 6, 0, 0, [0, 1, 1, 0, 0, 0, 0, 0]>, <90, 11, 20, 9, 6, 0, 0, [0, 1, 1, 0, 0, 0, 0, 0]>, <91, 12, 21, 9, 6, 0, 0, [0, 1, 1, 0, 0, 0, 0, 0]>, <92, 15, 24, 9, 6, 0, 0, [0, 1, 1, 0, 0, 0, 0, 0]>, <93, 16, 25, 9, 6, 0, 0, [0, 1, 1, 0, 0, 0, 0, 0]>, <94, 17, 26, 9, 6, 0, 0, [0, 1, 1, 0, 0, 0, 0, 0]>, <95, 18, 27, 9, 6, 0, 0, [0, 1, 1, 0, 0, 0, 0, 0]>, <96, 19, 28, 9, 6, 0, 0, [0, 1, 1, 0, 0, 0, 0, 0]>, <97, 20, 29, 9, 6, 0, 0, [0, 1, 1, 0, 0, 0, 0, 0]>, <98, 2, 12, 10, 7, 0, 0, [0, 0, 1, 1, 0, 0, 0, 0]>, <99, 3, 13, 10, 7, 0, 0, [0, 0, 1, 1, 0, 0, 0, 0]>, <100, 4, 14, 10, 7, 0, 0, [0, 0, 1, 1, 0, 0, 0, 0]>, <101, 5, 15, 10, 7, 0, 0, [0, 0, 1, 1, 0, 0, 0, 0]>, <102, 10, 20, 10, 7, 0, 0, [0, 0, 1, 1, 0, 0, 0, 0]>, <103, 11, 21, 10, 7, 0, 0, [0, 0, 1, 1, 0, 0, 0, 0]>, <104, 12, 22, 10, 7, 0, 0, [0, 0, 1, 1, 0, 0, 0, 0]>, <105, 14, 24, 10, 7, 0, 0, [0, 0, 1, 1, 0, 0, 0, 0]>, <106, 15, 25, 10, 7, 0, 0, [0, 0, 1, 1, 0, 0, 0, 0]>, <107, 16, 26, 10, 7, 0, 0, [0, 0, 1, 1, 0, 0, 0, 0]>, <108, 17, 27, 10, 7, 0, 0, [0, 0, 1, 1, 0, 0, 0, 0]>, <109, 18, 28, 10, 7, 0, 0, [0, 0, 1, 1, 0, 0, 0, 0]>, <110, 19, 29, 10, 7, 0, 0, [0, 0, 1, 1, 0, 0, 0, 0]>, <111, 4, 11, 7, 8, 1, 0, [0, 1, 1, 0, 0, 0, 0, 0]>, <112, 5, 12, 7, 8, 1, 0, [0, 1, 1, 0, 0, 0, 0, 0]>, <113, 11, 18, 7, 8, 1, 0, [0, 1, 1, 0, 0, 0, 0, 0]>, <114, 12, 19, 7, 8, 1, 0, [0, 1, 1, 0, 0, 0, 0, 0]>, <115, 17, 24, 7, 8, 1, 0, [0, 1, 1, 0, 0, 0, 0, 0]>, <116, 18, 25, 7, 8, 1, 0, [0, 1, 1, 0, 0, 0, 0, 0]>, <117, 19, 26, 7, 8, 1, 0, [0, 1, 1, 0, 0, 0, 0, 0]>, <118, 20, 27, 7, 8, 1, 0, [0, 1, 1, 0, 0, 0, 0, 0]>, <119, 1, 12, 11, 9, 0, 1, [0, 0, 0, 0, 1, 1, 0, 0]>, <120, 2, 13, 11, 9, 0, 1, [0, 0, 0, 0, 1, 1, 0, 0]>, <121, 3, 14, 11, 9, 0, 1, [0, 0, 0, 0, 1, 1, 0, 0]>, <122, 4, 15, 11, 9, 0, 1, [0, 0, 0, 0, 1, 1, 0, 0]>, <123, 5, 16, 11, 9, 0, 1, [0, 0, 0, 0, 1, 1, 0, 0]>, <124, 9, 20, 11, 9, 0, 1, [0, 0, 0, 0, 1, 1, 0, 0]>, <125, 10, 21, 11, 9, 0, 1, [0, 0, 0, 0, 1, 1, 0, 0]>, <126, 11, 22, 11, 9, 0, 1, [0, 0, 0, 0, 1, 1, 0, 0]>, <127, 12, 23, 11, 9, 0, 1, [0, 0, 0, 0, 1, 1, 0, 0]>, <128, 13, 24, 11, 9, 0, 1, [0, 0, 0, 0, 1, 1, 0, 0]>, <129, 14, 25, 11, 9, 0, 1, [0, 0, 0, 0, 1, 1, 0, 0]>, <130, 15, 26, 11, 9, 0, 1, [0, 0, 0, 0, 1, 1, 0, 0]>, <131, 16, 27, 11, 9, 0, 1, [0, 0, 0, 0, 1, 1, 0, 0]>, <132, 17, 28, 11, 9, 0, 1, [0, 0, 0, 0, 1, 1, 0, 0]>, <133, 18, 29, 11, 9, 0, 1, [0, 0, 0, 0, 1, 1, 0, 0]>, <134, 0, 12, 12, 10, 0, 1, [1, 1, 0, 0, 0, 0, 0, 0]>, <135, 1, 13, 12, 10, 0, 1, [1, 1, 0, 0, 0, 0, 0, 0]>, <136, 2, 14, 12, 10, 0, 1, [1, 1, 0, 0, 0, 0, 0, 0]>, <137, 3, 15, 12, 10, 0, 1, [1, 1, 0, 0, 0, 0, 0, 0]>, <138, 4, 16, 12, 10, 0, 1, [1, 1, 0, 0, 0, 0, 0, 0]>, <139, 5, 17, 12, 10, 0, 1, [1, 1, 0, 0, 0, 0, 0, 0]>, <140, 8, 20, 12, 10, 0, 1, [1, 1, 0, 0, 0, 0, 0, 0]>, <141, 9, 21, 12, 10, 0, 1, [1, 1, 0, 0, 0, 0, 0, 0]>, <142, 10, 22, 12, 10, 0, 1, [1, 1, 0, 0, 0, 0, 0, 0]>, <143, 11, 23, 12, 10, 0, 1, [1, 1, 0, 0, 0, 0, 0, 0]>, <144, 12, 24, 12, 10, 0, 1, [1, 1, 0, 0, 0, 0, 0, 0]>, <145, 13, 25, 12, 10, 0, 1, [1, 1, 0, 0, 0, 0, 0, 0]>, <146, 14, 26, 12, 10, 0, 1, [1, 1, 0, 0, 0, 0, 0, 0]>, <147, 15, 27, 12, 10, 0, 1, [1, 1, 0, 0, 0, 0, 0, 0]>, <148, 16, 28, 12, 10, 0, 1, [1, 1, 0, 0, 0, 0, 0, 0]>, <149, 17, 29, 12, 10, 0, 1, [1, 1, 0, 0, 0, 0, 0, 0]>, <150, 2, 12, 10, 11, 0, 1, [0, 0, 0, 1, 1, 0, 0, 0]>, <151, 3, 13, 10, 11, 0, 1, [0, 0, 0, 1, 1, 0, 0, 0]>, <152, 4, 14, 10, 11, 0, 1, [0, 0, 0, 1, 1, 0, 0, 0]>, <153, 5, 15, 10, 11, 0, 1, [0, 0, 0, 1, 1, 0, 0, 0]>, <154, 10, 20, 10, 11, 0, 1, [0, 0, 0, 1, 1, 0, 0, 0]>, <155, 11, 21, 10, 11, 0, 1, [0, 0, 0, 1, 1, 0, 0, 0]>, <156, 12, 22, 10, 11, 0, 1, [0, 0, 0, 1, 1, 0, 0, 0]>, <157, 14, 24, 10, 11, 0, 1, [0, 0, 0, 1, 1, 0, 0, 0]>, <158, 15, 25, 10, 11, 0, 1, [0, 0, 0, 1, 1, 0, 0, 0]>, <159, 16, 26, 10, 11, 0, 1, [0, 0, 0, 1, 1, 0, 0, 0]>, <160, 17, 27, 10, 11, 0, 1, [0, 0, 0, 1, 1, 0, 0, 0]>, <161, 18, 28, 10, 11, 0, 1, [0, 0, 0, 1, 1, 0, 0, 0]>, <162, 19, 29, 10, 11, 0, 1, [0, 0, 0, 1, 1, 0, 0, 0]>, <163, 0, 12, 12, 12, 0, 0, [0, 1, 1, 0, 0, 0, 0, 0]>, <164, 1, 13, 12, 12, 0, 0, [0, 1, 1, 0, 0, 0, 0, 0]>, <165, 2, 14, 12, 12, 0, 0, [0, 1, 1, 0, 0, 0, 0, 0]>, <166, 3, 15, 12, 12, 0, 0, [0, 1, 1, 0, 0, 0, 0, 0]>, <167, 4, 16, 12, 12, 0, 0, [0, 1, 1, 0, 0, 0, 0, 0]>, <168, 5, 17, 12, 12, 0, 0, [0, 1, 1, 0, 0, 0, 0, 0]>, <169, 8, 20, 12, 12, 0, 0, [0, 1, 1, 0, 0, 0, 0, 0]>, <170, 9, 21, 12, 12, 0, 0, [0, 1, 1, 0, 0, 0, 0, 0]>, <171, 10, 22, 12, 12, 0, 0, [0, 1, 1, 0, 0, 0, 0, 0]>, <172, 11, 23, 12, 12, 0, 0, [0, 1, 1, 0, 0, 0, 0, 0]>, <173, 12, 24, 12, 12, 0, 0, [0, 1, 1, 0, 0, 0, 0, 0]>, <174, 13, 25, 12, 12, 0, 0, [0, 1, 1, 0, 0, 0, 0, 0]>, <175, 14, 26, 12, 12, 0, 0, [0, 1, 1, 0, 0, 0, 0, 0]>, <176, 15, 27, 12, 12, 0, 0, [0, 1, 1, 0, 0, 0, 0, 0]>, <177, 16, 28, 12, 12, 0, 0, [0, 1, 1, 0, 0, 0, 0, 0]>, <178, 17, 29, 12, 12, 0, 0, [0, 1, 1, 0, 0, 0, 0, 0]>, <179, 4, 12, 8, 13, 0, 0, [0, 0, 0, 0, 1, 1, 0, 0]>, <180, 5, 13, 8, 13, 0, 0, [0, 0, 0, 0, 1, 1, 0, 0]>, <181, 11, 19, 8, 13, 0, 0, [0, 0, 0, 0, 1, 1, 0, 0]>, <182, 12, 20, 8, 13, 0, 0, [0, 0, 0, 0, 1, 1, 0, 0]>, <183, 16, 24, 8, 13, 0, 0, [0, 0, 0, 0, 1, 1, 0, 0]>, <184, 17, 25, 8, 13, 0, 0, [0, 0, 0, 0, 1, 1, 0, 0]>, <185, 18, 26, 8, 13, 0, 0, [0, 0, 0, 0, 1, 1, 0, 0]>, <186, 19, 27, 8, 13, 0, 0, [0, 0, 0, 0, 1, 1, 0, 0]>, <187, 20, 28, 8, 13, 0, 0, [0, 0, 0, 0, 1, 1, 0, 0]>, <188, 4, 12, 8, 14, 0, 0, [1, 0, 0, 0, 0, 0, 0, 1]>, <189, 5, 13, 8, 14, 0, 0, [1, 0, 0, 0, 0, 0, 0, 1]>, <190, 11, 19, 8, 14, 0, 0, [1, 0, 0, 0, 0, 0, 0, 1]>, <191, 12, 20, 8, 14, 0, 0, [1, 0, 0, 0, 0, 0, 0, 1]>, <192, 16, 24, 8, 14, 0, 0, [1, 0, 0, 0, 0, 0, 0, 1]>, <193, 17, 25, 8, 14, 0, 0, [1, 0, 0, 0, 0, 0, 0, 1]>, <194, 18, 26, 8, 14, 0, 0, [1, 0, 0, 0, 0, 0, 0, 1]>, <195, 19, 27, 8, 14, 0, 0, [1, 0, 0, 0, 0, 0, 0, 1]>, <196, 20, 28, 8, 14, 0, 0, [1, 0, 0, 0, 0, 0, 0, 1]>, <197, 4, 12, 8, 15, 0, 0, [0, 0, 0, 0, 0, 0, 1, 1]>, <198, 5, 13, 8, 15, 0, 0, [0, 0, 0, 0, 0, 0, 1, 1]>, <199, 11, 19, 8, 15, 0, 0, [0, 0, 0, 0, 0, 0, 1, 1]>, <200, 12, 20, 8, 15, 0, 0, [0, 0, 0, 0, 0, 0, 1, 1]>, <201, 16, 24, 8, 15, 0, 0, [0, 0, 0, 0, 0, 0, 1, 1]>, <202, 17, 25, 8, 15, 0, 0, [0, 0, 0, 0, 0, 0, 1, 1]>, <203, 18, 26, 8, 15, 0, 0, [0, 0, 0, 0, 0, 0, 1, 1]>, <204, 19, 27, 8, 15, 0, 0, [0, 0, 0, 0, 0, 0, 1, 1]>, <205, 20, 28, 8, 15, 0, 0, [0, 0, 0, 0, 0, 0, 1, 1]>, <206, 4, 11, 7, 16, 0, 1, [0, 1, 1, 0, 0, 0, 0, 0]>, <207, 5, 12, 7, 16, 0, 1, [0, 1, 1, 0, 0, 0, 0, 0]>, <208, 11, 18, 7, 16, 0, 1, [0, 1, 1, 0, 0, 0, 0, 0]>, <209, 12, 19, 7, 16, 0, 1, [0, 1, 1, 0, 0, 0, 0, 0]>, <210, 17, 24, 7, 16, 0, 1, [0, 1, 1, 0, 0, 0, 0, 0]>, <211, 18, 25, 7, 16, 0, 1, [0, 1, 1, 0, 0, 0, 0, 0]>, <212, 19, 26, 7, 16, 0, 1, [0, 1, 1, 0, 0, 0, 0, 0]>, <213, 20, 27, 7, 16, 0, 1, [0, 1, 1, 0, 0, 0, 0, 0]>, <214, 2, 12, 10, 17, 0, 1, [0, 1, 1, 0, 0, 0, 0, 0]>, <215, 3, 13, 10, 17, 0, 1, [0, 1, 1, 0, 0, 0, 0, 0]>, <216, 4, 14, 10, 17, 0, 1, [0, 1, 1, 0, 0, 0, 0, 0]>, <217, 5, 15, 10, 17, 0, 1, [0, 1, 1, 0, 0, 0, 0, 0]>, <218, 10, 20, 10, 17, 0, 1, [0, 1, 1, 0, 0, 0, 0, 0]>, <219, 11, 21, 10, 17, 0, 1, [0, 1, 1, 0, 0, 0, 0, 0]>, <220, 12, 22, 10, 17, 0, 1, [0, 1, 1, 0, 0, 0, 0, 0]>, <221, 14, 24, 10, 17, 0, 1, [0, 1, 1, 0, 0, 0, 0, 0]>, <222, 15, 25, 10, 17, 0, 1, [0, 1, 1, 0, 0, 0, 0, 0]>, <223, 16, 26, 10, 17, 0, 1, [0, 1, 1, 0, 0, 0, 0, 0]>, <224, 17, 27, 10, 17, 0, 1, [0, 1, 1, 0, 0, 0, 0, 0]>, <225, 18, 28, 10, 17, 0, 1, [0, 1, 1, 0, 0, 0, 0, 0]>, <226, 19, 29, 10, 17, 0, 1, [0, 1, 1, 0, 0, 0, 0, 0]>, <227, 4, 12, 8, 18, 0, 0, [0, 1, 1, 0, 0, 0, 0, 0]>, <228, 5, 13, 8, 18, 0, 0, [0, 1, 1, 0, 0, 0, 0, 0]>, <229, 11, 19, 8, 18, 0, 0, [0, 1, 1, 0, 0, 0, 0, 0]>, <230, 12, 20, 8, 18, 0, 0, [0, 1, 1, 0, 0, 0, 0, 0]>, <231, 16, 24, 8, 18, 0, 0, [0, 1, 1, 0, 0, 0, 0, 0]>, <232, 17, 25, 8, 18, 0, 0, [0, 1, 1, 0, 0, 0, 0, 0]>, <233, 18, 26, 8, 18, 0, 0, [0, 1, 1, 0, 0, 0, 0, 0]>, <234, 19, 27, 8, 18, 0, 0, [0, 1, 1, 0, 0, 0, 0, 0]>, <235, 20, 28, 8, 18, 0, 0, [0, 1, 1, 0, 0, 0, 0, 0]>, <236, 3, 12, 9, 19, 0, 0, [0, 0, 0, 0, 0, 0, 1, 1]>, <237, 4, 13, 9, 19, 0, 0, [0, 0, 0, 0, 0, 0, 1, 1]>, <238, 5, 14, 9, 19, 0, 0, [0, 0, 0, 0, 0, 0, 1, 1]>, <239, 11, 20, 9, 19, 0, 0, [0, 0, 0, 0, 0, 0, 1, 1]>, <240, 12, 21, 9, 19, 0, 0, [0, 0, 0, 0, 0, 0, 1, 1]>, <241, 15, 24, 9, 19, 0, 0, [0, 0, 0, 0, 0, 0, 1, 1]>, <242, 16, 25, 9, 19, 0, 0, [0, 0, 0, 0, 0, 0, 1, 1]>, <243, 17, 26, 9, 19, 0, 0, [0, 0, 0, 0, 0, 0, 1, 1]>, <244, 18, 27, 9, 19, 0, 0, [0, 0, 0, 0, 0, 0, 1, 1]>, <245, 19, 28, 9, 19, 0, 0, [0, 0, 0, 0, 0, 0, 1, 1]>, <246, 20, 29, 9, 19, 0, 0, [0, 0, 0, 0, 0, 0, 1, 1]>, <247, 3, 12, 9, 20, 0, 0, [0, 0, 0, 0, 1, 1, 0, 0]>, <248, 4, 13, 9, 20, 0, 0, [0, 0, 0, 0, 1, 1, 0, 0]>, <249, 5, 14, 9, 20, 0, 0, [0, 0, 0, 0, 1, 1, 0, 0]>, <250, 11, 20, 9, 20, 0, 0, [0, 0, 0, 0, 1, 1, 0, 0]>, <251, 12, 21, 9, 20, 0, 0, [0, 0, 0, 0, 1, 1, 0, 0]>, <252, 15, 24, 9, 20, 0, 0, [0, 0, 0, 0, 1, 1, 0, 0]>, <253, 16, 25, 9, 20, 0, 0, [0, 0, 0, 0, 1, 1, 0, 0]>, <254, 17, 26, 9, 20, 0, 0, [0, 0, 0, 0, 1, 1, 0, 0]>, <255, 18, 27, 9, 20, 0, 0, [0, 0, 0, 0, 1, 1, 0, 0]>, <256, 19, 28, 9, 20, 0, 0, [0, 0, 0, 0, 1, 1, 0, 0]>, <257, 20, 29, 9, 20, 0, 0, [0, 0, 0, 0, 1, 1, 0, 0]>, <258, 3, 12, 9, 21, 1, 0, [0, 0, 0, 0, 1, 1, 0, 0]>, <259, 4, 13, 9, 21, 1, 0, [0, 0, 0, 0, 1, 1, 0, 0]>, <260, 5, 14, 9, 21, 1, 0, [0, 0, 0, 0, 1, 1, 0, 0]>, <261, 11, 20, 9, 21, 1, 0, [0, 0, 0, 0, 1, 1, 0, 0]>, <262, 12, 21, 9, 21, 1, 0, [0, 0, 0, 0, 1, 1, 0, 0]>, <263, 15, 24, 9, 21, 1, 0, [0, 0, 0, 0, 1, 1, 0, 0]>, <264, 16, 25, 9, 21, 1, 0, [0, 0, 0, 0, 1, 1, 0, 0]>, <265, 17, 26, 9, 21, 1, 0, [0, 0, 0, 0, 1, 1, 0, 0]>, <266, 18, 27, 9, 21, 1, 0, [0, 0, 0, 0, 1, 1, 0, 0]>, <267, 19, 28, 9, 21, 1, 0, [0, 0, 0, 0, 1, 1, 0, 0]>, <268, 20, 29, 9, 21, 1, 0, [0, 0, 0, 0, 1, 1, 0, 0]>};
